Problem:    ej
Rows:       16
Columns:    14 (3 integer, 3 binary)
Non-zeros:  41
Status:     INTEGER OPTIMAL
Objective:  z = 114000000 (MAXimum)

   No.   Row name        Activity     Lower bound   Upper bound
------ ------------    ------------- ------------- -------------
     1 z                    1.14e+08                             
     2 e1                          0                      144000 
     3 e2                     240000                      288000 
     4 e3                          0                      144000 
     5 e8                         -5                          -5 
     6 e15                       100                         100 
     7 e4                          0            -0             = 
     8 e5                          0                      480000 
     9 e6                          0                      960000 
    10 e7                          0                      480000 
    11 e9                       -800          -800             = 
    12 e10                    -72000                          -0 
    13 e11                         0                          -0 
    14 e13                         0            -0             = 
    15 e14                         0            -0             = 
    16 e12                         0            -0             = 

   No. Column name       Activity     Lower bound   Upper bound
------ ------------    ------------- ------------- -------------
     1 A                           0             0               
     2 YC           *              1             0             1 
     3 T                          10             0               
     4 TRA1                        0             0               
     5 TRB1                        0             0               
     6 TRB2                       10             0               
     7 TA1                         0             0               
     8 TA2                         0             0               
     9 TA3                         0             0               
    10 YRA          *              0             0             1 
    11 YRB          *              1             0             1 
    12 ORA1                      800             0               
    13 ORB1                        0             0               
    14 ORB2                  666.667             0               

Integer feasibility conditions:

KKT.PE: max.abs.err = 0.00e+00 on row 0
        max.rel.err = 0.00e+00 on row 0
        High quality

KKT.PB: max.abs.err = 0.00e+00 on row 0
        max.rel.err = 0.00e+00 on row 0
        High quality

End of output
